NAME : portcgen-25-40
COMMENT : portcgen N=25, seed=40
TYPE : TSP
DIMENSION : 25
EDGE_WEIGHT_TYPE : EUC_2D
NODE_COORD_SECTION
1 86 92
2 83 91
3 110 78
4 86 95
5 70 94
6 70 78
7 96 110
8 85 91
9 54 92
10 88 105
11 88 81
12 76 97
13 69 66
14 70 106
15 91 81
16 64 48
17 83 93
18 81 94
19 90 98
20 63 72
21 91 71
22 75 81
23 71 37
24 71 74
25 74 83
